; benchmark generated from python API
(set-info :status unknown)
(declare-datatypes ((RealState 0)) (((RMk1 (rval1 Real)) (RMk2 (rval2 Real)))))
 (assert
 (forall ((|v17:0| Real) )(forall ((|v16:1| Real) )(forall ((|v15:2| Real) )(forall ((|v14:3| Real) )(forall ((|v13:4| Real) )(forall ((|v12:5| Real) )(exists ((|v11:6_st| RealState) (val!10278 Real) )(exists ((|v10:7_st| RealState) (val!10279 Real) )(exists ((|v9:8_st| RealState) (val!10280 Real) )(exists ((|v8:9_st| RealState) (val!10281 Real) )(exists ((|v7:10_st| RealState) (val!10282 Real) )(exists ((|v6:11_st| RealState) (val!10283 Real) )(forall ((|v5:12| Real) )(forall ((|v4:13| Real) )(forall ((|v3:14| Real) )(forall ((|v2:15| Real) )(forall ((|v1:16| Real) )(forall ((|v0:17| Real) )(let ((?x5537 (- 1.0)))
 (let ((?x8355 (- 12.0)))
 (let ((?x8720 (* ?x8355 |v2:15|)))
 (let ((?x286 (- 19.0)))
 (let ((?x8174 (* ?x286 |v4:13|)))
 (let ((?x4856 (rval2 |v11:6_st|)))
 (let ((?x1923 (* ?x5537 ?x4856)))
 (let ((?x7474 (* 14.0 |v5:12|)))
 (let ((?x5629 (+ (+ (+ (+ (* 13.0 |v12:5|) (* ?x8355 |v5:12|)) (* 16.0 |v13:4|)) ?x7474) ?x1923)))
 (let ((?x9179 (- 9.0)))
 (let ((?x2701 (rval2 |v7:10_st|)))
 (let ((?x6059 (- 2.0)))
 (let ((?x1511 (* ?x6059 ?x2701)))
 (let ((?x7122 (- 17.0)))
 (let ((?x3330 (* ?x7122 |v13:4|)))
 (let ((?x5679 (rval2 |v9:8_st|)))
 (let ((?x1262 (* 9.0 ?x5679)))
 (let ((?x3775 (- 16.0)))
 (let ((?x7958 (* ?x3775 |v12:5|)))
 (let ((?x1526 (+ (+ (+ (+ (* ?x5537 |v4:13|) (* 5.0 |v2:15|)) (* ?x6059 |v15:2|)) ?x7958) ?x1262)))
 (let (($x1971 (or (<= (+ (+ ?x1526 ?x3330) ?x1511) ?x9179) (<= (+ (+ ?x5629 ?x8174) ?x8720) ?x5537))))
 (let ((?x9159 (* 15.0 ?x5679)))
 (let ((?x9214 (rval2 |v8:9_st|)))
 (let ((?x1293 (* 4.0 ?x9214)))
 (let ((?x4592 (- 4.0)))
 (let ((?x5060 (* ?x4592 |v17:0|)))
 (let ((?x3312 (- 13.0)))
 (let ((?x7276 (* ?x3312 |v3:14|)))
 (let ((?x1745 (+ (+ (+ (* 18.0 (rval2 |v6:11_st|)) (* 19.0 |v0:17|)) (* (- 14.0) |v16:1|)) ?x7276)))
 (let ((?x3669 (rval2 |v10:7_st|)))
 (let ((?x2904 (* 0.0 ?x3669)))
 (let ((?x1687 (- 5.0)))
 (let ((?x687 (* ?x1687 |v3:14|)))
 (let ((?x9405 (* 2.0 |v13:4|)))
 (let ((?x8678 (* 20.0 |v15:2|)))
 (let ((?x7088 (+ (+ (+ (* 7.0 |v15:2|) (* 17.0 ?x5679)) (* (- 8.0) ?x3669)) ?x8678)))
 (let (($x7370 (and (<= (+ (+ (+ ?x7088 ?x9405) ?x687) ?x2904) 11.0) (<= (+ (+ (+ ?x1745 ?x5060) ?x1293) ?x9159) 17.0))))
 (let ((?x8577 (* 17.0 ?x3669)))
 (let ((?x7468 (- 11.0)))
 (let ((?x2663 (* ?x7468 |v1:16|)))
 (let ((?x319 (+ (+ (+ (+ (* 18.0 |v14:3|) (* 15.0 ?x2701)) (* ?x3775 |v2:15|)) ?x2663) ?x8577)))
 (let ((?x3812 (- 15.0)))
 (let ((?x7939 (* 14.0 |v16:1|)))
 (let ((?x831 (* ?x1687 |v5:12|)))
 (let ((?x1331 (+ (+ (+ (+ (* 10.0 |v14:3|) (* ?x6059 ?x3669)) (* 6.0 |v12:5|)) ?x9214) ?x831)))
 (let (($x7561 (or (<= (+ (+ ?x1331 ?x7939) (* ?x3775 |v14:3|)) ?x3812) (<= (+ (+ ?x319 (* ?x3812 ?x4856)) (* 5.0 ?x4856)) 19.0))))
 (let ((?x3237 (- 14.0)))
 (let ((?x9566 (- 10.0)))
 (let ((?x5833 (* ?x9566 |v12:5|)))
 (let ((?x9240 (* 2.0 |v17:0|)))
 (let ((?x2348 (* 12.0 |v3:14|)))
 (let ((?x3557 (* 11.0 ?x9214)))
 (let ((?x7665 (+ (+ (+ (+ (* 18.0 |v16:1|) (* 13.0 |v13:4|)) (* ?x7122 ?x4856)) ?x3557) ?x2348)))
 (let ((?x8370 (* 3.0 |v15:2|)))
 (let ((?x9300 (* 18.0 |v3:14|)))
 (let ((?x7410 (- 8.0)))
 (let ((?x239 (* ?x7410 |v3:14|)))
 (let ((?x617 (* ?x7468 |v3:14|)))
 (let ((?x7654 (+ (+ (+ (+ (* ?x1687 |v1:16|) (* 6.0 |v17:0|)) (* 19.0 |v5:12|)) ?x617) ?x239)))
 (let (($x4553 (and (<= (+ (+ ?x7654 ?x9300) ?x8370) 7.0) (<= (+ (+ ?x7665 ?x9240) ?x5833) ?x3237))))
 (let ((?x2611 (* ?x5537 ?x3669)))
 (let ((?x157 (* 8.0 |v17:0|)))
 (let ((?x4164 (+ (+ (+ (+ (* ?x9566 |v16:1|) (* 16.0 ?x2701)) (* ?x8355 |v12:5|)) ?x157) (* ?x286 ?x2701))))
 (let ((?x7874 (* ?x6059 |v4:13|)))
 (let ((?x5167 (* 17.0 |v17:0|)))
 (let ((?x8965 (+ (+ (+ (+ (+ (* 2.0 |v2:15|) (* (- 6.0) ?x5679)) ?x2904) ?x5167) ?x2701) (* ?x9179 |v13:4|))))
 (let (($x900 (or (<= (+ ?x8965 ?x7874) 15.0) (<= (+ (+ ?x4164 (* (- 7.0) ?x3669)) ?x2611) ?x7122))))
 (let ((?x2918 (* 10.0 |v15:2|)))
 (let ((?x8177 (* 3.0 |v14:3|)))
 (let ((?x3314 (+ (+ (+ (+ (* 18.0 |v17:0|) (* 19.0 ?x9214)) (* 2.0 |v14:3|)) ?x5679) ?x7474)))
 (let ((?x8182 (* 20.0 |v12:5|)))
 (let ((?x4432 (* 3.0 |v5:12|)))
 (let ((?x6646 (* ?x7410 |v4:13|)))
 (let ((?x3983 (+ (+ (+ (* 5.0 ?x3669) (* 19.0 |v0:17|)) (* 20.0 |v13:4|)) (* ?x286 ?x3669))))
 (let (($x4934 (or (<= (+ (+ (+ ?x3983 ?x6646) ?x4432) ?x8182) 4.0) (<= (+ (+ ?x3314 ?x8177) ?x2918) 4.0))))
 (let ((?x2540 (- 20.0)))
 (let ((?x5885 (* ?x2540 ?x9214)))
 (let ((?x1956 (* ?x3775 |v15:2|)))
 (let ((?x7091 (+ (+ (+ (+ (* ?x8355 ?x2701) (* ?x3775 ?x2701)) (* (- 7.0) |v3:14|)) ?x1956) ?x5885)))
 (let ((?x913 (* ?x8355 |v12:5|)))
 (let ((?x2552 (* 13.0 ?x4856)))
 (let ((?x7736 (* ?x3775 ?x9214)))
 (let ((?x8245 (+ (+ (+ (+ (+ (* ?x3812 |v1:16|) ?x8678) ?x8678) (* 18.0 ?x3669)) ?x7736) ?x2552)))
 (let (($x8114 (and (<= (+ ?x8245 ?x913) ?x4592) (<= (+ (+ ?x7091 |v4:13|) (* 7.0 ?x3669)) 3.0))))
 (let ((?x597 (* ?x5537 |v17:0|)))
 (let ((?x5792 (* ?x3812 ?x3669)))
 (let ((?x7107 (+ (+ (+ (+ (* ?x2540 |v3:14|) (* ?x2540 |v13:4|)) (* ?x3312 |v4:13|)) ?x5792) |v1:16|)))
 (let ((?x2747 (* 3.0 |v0:17|)))
 (let ((?x3133 (* ?x7122 |v15:2|)))
 (let ((?x7558 (* 0.0 ?x5679)))
 (let ((?x5149 (* 8.0 ?x4856)))
 (let ((?x5272 (+ (+ (+ (+ (* ?x3237 ?x5679) (* ?x8355 |v5:12|)) (* (- 6.0) ?x4856)) ?x5149) ?x7558)))
 (let (($x4107 (and (<= (+ (+ ?x5272 ?x3133) ?x2747) 11.0) (<= (+ (+ ?x7107 ?x597) (* ?x6059 ?x9214)) ?x3775))))
 (let (($x1386 (or (or (or $x4107 $x8114) (and $x4934 $x900)) (or (or $x4553 $x7561) (or $x7370 $x1971)))))
 (let ((?x439 (rval2 |v6:11_st|)))
 (let ((?x3860 (* ?x8355 ?x439)))
 (let ((?x6208 (* ?x2540 |v17:0|)))
 (let ((?x6370 (+ (+ (+ (* 9.0 ?x439) (* 0.0 ?x439)) (* (- 6.0) |v17:0|)) (* ?x9179 |v12:5|))))
 (let ((?x316 (* 20.0 |v13:4|)))
 (let ((?x4617 (+ (+ (+ (+ (* ?x3775 |v4:13|) (* 11.0 |v1:16|)) ?x7558) (* ?x3237 |v3:14|)) ?x316)))
 (let (($x4495 (and (<= (+ (+ ?x4617 (* 8.0 ?x5679)) ?x239) 3.0) (<= (+ (+ (+ ?x6370 ?x6208) ?x3860) ?x4432) 11.0))))
 (let ((?x1622 (* 6.0 |v17:0|)))
 (let ((?x7635 (* 6.0 |v1:16|)))
 (let ((?x365 (+ (+ (+ (* 10.0 ?x439) (* (- 18.0) ?x4856)) (* 13.0 |v16:1|)) ?x6208)))
 (let ((?x6748 (* 5.0 ?x3669)))
 (let ((?x219 (* 19.0 |v16:1|)))
 (let ((?x3342 (+ (+ (+ (+ ?x7558 (* ?x6059 |v17:0|)) (* ?x7468 ?x3669)) (* ?x5537 ?x439)) ?x219)))
 (let (($x8963 (or (<= (+ (+ ?x3342 ?x6748) ?x3860) 11.0) (<= (+ (+ (+ ?x365 ?x7635) ?x1622) ?x2904) ?x3812))))
 (let ((?x8358 (* ?x2540 ?x5679)))
 (let ((?x7210 (* 10.0 ?x2701)))
 (let ((?x5271 (* ?x8355 |v13:4|)))
 (let ((?x1380 (* 6.0 ?x2701)))
 (let ((?x6385 (+ (+ (+ (+ (* 17.0 |v14:3|) (* 17.0 ?x4856)) (* 19.0 ?x9214)) ?x1380) ?x5271)))
 (let ((?x3810 (* ?x7122 |v1:16|)))
 (let ((?x5853 (+ (+ (+ (+ (+ (* ?x9566 ?x2701) (* (- 3.0) |v1:16|)) |v1:16|) ?x9240) ?x3810) ?x8358)))
 (let ((?x9410 (* ?x9566 |v16:1|)))
 (let ((?x1786 (* 2.0 |v15:2|)))
 (let ((?x2377 (* ?x3775 |v5:12|)))
 (let ((?x450 (+ (+ (+ (+ (* ?x2540 |v13:4|) ?x7958) (* (- 18.0) ?x5679)) (* 14.0 |v14:3|)) ?x2377)))
 (let ((?x7925 (- 3.0)))
 (let ((?x8299 (* 15.0 |v13:4|)))
 (let ((?x8938 (* 3.0 ?x4856)))
 (let ((?x8627 (+ (+ (+ (* ?x5537 ?x9214) (* (- 7.0) |v15:2|)) (* 0.0 |v15:2|)) (* 7.0 |v13:4|))))
 (let ((?x2930 (+ (+ (+ (+ ?x1956 (* 11.0 |v1:16|)) (* 15.0 |v16:1|)) (* ?x7468 |v14:3|)) |v12:5|)))
 (let (($x318 (or (<= (+ (+ ?x2930 ?x5792) ?x8177) 2.0) (<= (+ (+ (+ ?x8627 (* 0.0 |v17:0|)) ?x8938) ?x8299) ?x7925))))
 (let (($x7333 (or $x318 (and (<= (+ (+ ?x450 ?x1786) ?x9410) 12.0) (<= (+ ?x5853 ?x6208) 13.0)))))
 (let ((?x3105 (* 19.0 |v3:14|)))
 (let ((?x3494 (* 18.0 |v16:1|)))
 (let ((?x3912 (* 4.0 |v1:16|)))
 (let ((?x4984 (+ (+ (+ (+ (* ?x7468 ?x9214) (* ?x3812 |v5:12|)) (* 8.0 ?x9214)) ?x3912) ?x3494)))
 (let ((?x8674 (* 16.0 |v0:17|)))
 (let ((?x7251 (+ (+ (+ (+ (* (- 6.0) ?x9214) (* 14.0 ?x9214)) (* ?x3237 ?x439)) ?x8674) ?x5271)))
 (let (($x9273 (and (<= (+ (+ ?x7251 |v0:17|) ?x617) ?x3312) (<= (+ (+ ?x4984 ?x7736) ?x3105) ?x286))))
 (let ((?x2302 (* ?x7925 |v16:1|)))
 (let ((?x5459 (* 9.0 |v1:16|)))
 (let ((?x2227 (* 7.0 |v14:3|)))
 (let ((?x1513 (+ (+ (+ (+ (* ?x3312 |v2:15|) (* ?x9179 ?x5679)) (* 6.0 ?x3669)) ?x5459) ?x2227)))
 (let ((?x2441 (* 15.0 |v12:5|)))
 (let ((?x7193 (* 10.0 ?x4856)))
 (let ((?x8269 (* 19.0 |v1:16|)))
 (let ((?x5239 (+ (+ (* ?x8355 |v5:12|) (* ?x6059 |v5:12|)) ?x8269)))
 (let (($x5411 (<= (+ (+ (+ (+ ?x5239 (* 6.0 |v13:4|)) ?x7193) (* ?x1687 ?x9214)) ?x2441) ?x7122)))
 (let (($x3402 (and (or (or (or $x5411 (<= (+ (+ ?x1513 ?x5459) ?x2302) ?x8355)) $x9273) $x7333) (and (<= (+ (+ ?x6385 ?x7210) ?x8358) ?x1687) (and $x8963 $x4495)))))
 (let ((?x7115 (* ?x9566 |v17:0|)))
 (let ((?x7398 (* 14.0 |v1:16|)))
 (let ((?x289 (* ?x286 |v13:4|)))
 (let ((?x745 (+ (+ (+ (+ (* (- 6.0) ?x4856) ?x2302) (* ?x4592 |v12:5|)) (* 2.0 |v12:5|)) ?x289)))
 (let ((?x5407 (* 7.0 |v2:15|)))
 (let ((?x3040 (* 17.0 |v16:1|)))
 (let ((?x2026 (* ?x3812 |v2:15|)))
 (let ((?x2516 (* ?x3775 |v16:1|)))
 (let ((?x4558 (+ (+ (+ (+ (* ?x8355 ?x5679) (* ?x5537 |v4:13|)) (* 6.0 ?x3669)) ?x2516) ?x2026)))
 (let (($x6703 (and (<= (+ (+ ?x4558 ?x3040) ?x5407) 4.0) (<= (+ (+ ?x745 ?x7398) ?x7115) 10.0))))
 (let ((?x6156 (- 18.0)))
 (let ((?x3610 (* ?x6156 |v4:13|)))
 (let ((?x4921 (+ (+ (+ (+ (* ?x7410 ?x439) (* 11.0 |v17:0|)) (* 19.0 |v14:3|)) ?x3610) (* ?x1687 ?x2701))))
 (let ((?x8475 (* 11.0 |v15:2|)))
 (let ((?x2001 (* 17.0 |v13:4|)))
 (let ((?x272 (+ (+ (+ (+ (* 13.0 |v17:0|) (* 16.0 ?x3669)) (* 19.0 |v0:17|)) ?x2001) ?x3557)))
 (let (($x4323 (or (<= (+ (+ ?x272 ?x8475) ?x5407) 1.0) (<= (+ (+ ?x4921 (* 5.0 |v13:4|)) (* 5.0 ?x5679)) ?x286))))
 (let ((?x9493 (* ?x7122 |v0:17|)))
 (let ((?x3997 (* 14.0 |v3:14|)))
 (let ((?x5852 (* ?x2540 |v0:17|)))
 (let ((?x7858 (* ?x3312 |v16:1|)))
 (let ((?x1894 (+ (+ (+ (+ (* ?x3237 |v0:17|) (* 19.0 |v14:3|)) (* ?x3237 ?x439)) ?x7858) ?x5852)))
 (let ((?x5187 (- 6.0)))
 (let ((?x5224 (* ?x5187 ?x4856)))
 (let ((?x7255 (* 0.0 |v14:3|)))
 (let ((?x4878 (+ (+ (+ (+ (* 15.0 |v5:12|) (* 3.0 |v12:5|)) ?x8299) (* 12.0 ?x5679)) ?x3133)))
 (let (($x9441 (or (<= (+ (+ ?x4878 ?x7255) ?x5224) 11.0) (<= (+ (+ ?x1894 ?x3997) ?x9493) ?x5537))))
 (let ((?x8270 (* 3.0 |v17:0|)))
 (let ((?x2293 (+ (+ (+ (+ (* 13.0 |v0:17|) (* 4.0 |v14:3|)) ?x5459) (* 9.0 |v15:2|)) (* ?x4592 ?x9214))))
 (let ((?x30 (* ?x5537 |v0:17|)))
 (let ((?x9509 (+ (+ (+ (+ (* 18.0 ?x2701) ?x9493) (* 0.0 |v0:17|)) (* ?x9179 |v1:16|)) ?x1262)))
 (let (($x9249 (and (<= (+ (+ ?x9509 (* ?x6059 |v13:4|)) ?x30) ?x9179) (<= (+ (+ ?x2293 ?x2516) ?x8270) ?x6156))))
 (let ((?x3863 (* ?x3812 |v3:14|)))
 (let ((?x6204 (* ?x7410 ?x9214)))
 (let ((?x7895 (+ (+ (+ (+ (* 19.0 ?x5679) (* ?x8355 ?x3669)) (* 0.0 |v2:15|)) ?x6204) (* ?x286 |v12:5|))))
 (let ((?x3905 (* 12.0 |v14:3|)))
 (let ((?x4539 (+ (+ (+ (+ ?x3040 (* 6.0 ?x4856)) (* ?x2540 |v1:16|)) (* 3.0 |v2:15|)) ?x3105)))
 (let (($x8672 (and (<= (+ (+ ?x4539 ?x3905) ?x7115) ?x9566) (<= (+ (+ ?x7895 ?x3863) (* ?x6156 ?x3669)) 8.0))))
 (let ((?x4859 (* ?x286 |v3:14|)))
 (let ((?x1472 (+ (+ (+ (+ |v5:12| (* 12.0 ?x4856)) (* ?x8355 ?x9214)) (* 13.0 |v14:3|)) (* ?x3312 |v13:4|))))
 (let ((?x3176 (* 10.0 ?x5679)))
 (let ((?x7457 (+ (+ (+ (+ (+ ?x2227 ?x3330) (* 4.0 |v5:12|)) ?x1293) (* 4.0 |v5:12|)) ?x3176)))
 (let (($x6443 (or (<= (+ ?x7457 ?x4856) ?x286) (<= (+ (+ ?x1472 (* ?x7468 ?x439)) ?x4859) 12.0))))
 (let ((?x602 (* ?x4592 |v2:15|)))
 (let ((?x1608 (+ (+ (+ (+ (+ ?x687 ?x1380) (* ?x3237 |v4:13|)) (* ?x6156 |v13:4|)) ?x1786) (* ?x3812 |v16:1|))))
 (let ((?x2043 (* 0.0 |v16:1|)))
 (let ((?x857 (* 7.0 |v3:14|)))
 (let ((?x753 (* 10.0 |v2:15|)))
 (let ((?x6878 (* ?x7410 |v13:4|)))
 (let ((?x2839 (+ (+ (+ (+ (* ?x6156 |v14:3|) (* ?x3312 |v4:13|)) (* 19.0 |v2:15|)) ?x6878) ?x753)))
 (let ((?x7525 (* 18.0 |v14:3|)))
 (let ((?x6060 (* ?x7468 ?x2701)))
 (let ((?x5525 (+ (+ (+ (* 12.0 ?x4856) (* 20.0 |v4:13|)) (* ?x7410 |v17:0|)) (* ?x3312 |v14:3|))))
 (let ((?x3228 (* 13.0 |v0:17|)))
 (let ((?x1760 (+ (+ (+ (+ ?x439 (* 11.0 |v5:12|)) (* 2.0 |v16:1|)) (* ?x9566 ?x4856)) ?x3228)))
 (let (($x7612 (or (<= (+ (+ ?x1760 ?x7525) (* ?x6156 ?x2701)) 20.0) (<= (+ (+ (+ ?x5525 ?x6060) (* ?x286 |v16:1|)) ?x7525) ?x4592))))
 (let (($x7205 (and $x7612 (or (<= (+ (+ ?x2839 ?x857) ?x2043) ?x7410) (<= (+ ?x1608 ?x602) 16.0)))))
 (let ((?x8308 (* ?x9566 ?x4856)))
 (let ((?x2854 (* 20.0 |v0:17|)))
 (let ((?x576 (+ (+ (+ (+ |v13:4| (* 0.0 |v13:4|)) (* 14.0 ?x4856)) (* 10.0 |v4:13|)) ?x6060)))
 (let ((?x9308 (- 7.0)))
 (let ((?x1930 (* ?x8355 |v3:14|)))
 (let ((?x1228 (* ?x7410 |v1:16|)))
 (let ((?x5829 (+ (+ (+ (* 5.0 ?x439) (* 5.0 |v14:3|)) (* 16.0 |v14:3|)) (* ?x3237 ?x9214))))
 (let (($x8433 (or (<= (+ (+ (+ ?x5829 ?x1228) ?x1930) (* ?x286 ?x9214)) ?x9308) (<= (+ (+ ?x576 ?x2854) ?x8308) 19.0))))
 (let ((?x1723 (* 3.0 |v3:14|)))
 (let ((?x5600 (* ?x286 ?x439)))
 (let ((?x9089 (+ (+ (+ (* ?x6156 |v16:1|) (* ?x3312 ?x4856)) (* ?x9308 |v17:0|)) (* 11.0 |v16:1|))))
 (let ((?x6356 (* 19.0 ?x2701)))
 (let ((?x5682 (* 8.0 |v3:14|)))
 (let ((?x1831 (* 20.0 |v4:13|)))
 (let ((?x6433 (+ (+ (+ (+ ?x753 (* 10.0 ?x439)) (* 3.0 ?x5679)) (* 7.0 ?x9214)) ?x1831)))
 (let (($x7312 (and (<= (+ (+ ?x6433 ?x5682) ?x6356) 15.0) (<= (+ (+ (+ ?x9089 ?x5600) ?x602) ?x1723) 17.0))))
 (let ((?x4263 (* ?x3237 ?x5679)))
 (let ((?x6408 (* 20.0 ?x2701)))
 (let ((?x7514 (+ (+ (+ (+ (* ?x5187 ?x5679) (* ?x7410 |v17:0|)) ?x1723) (* 11.0 |v2:15|)) ?x6408)))
 (let ((?x9162 (* 17.0 ?x439)))
 (let ((?x4741 (* 6.0 ?x4856)))
 (let ((?x5122 (* 14.0 ?x3669)))
 (let ((?x433 (+ (+ (+ (+ (* ?x1687 |v0:17|) (* ?x7410 |v12:5|)) (* ?x3312 |v12:5|)) ?x5122) ?x4741)))
 (let (($x7763 (or (<= (+ (+ ?x433 (* ?x2540 |v15:2|)) ?x9162) 6.0) (<= (+ (+ ?x7514 ?x4263) ?x6748) 9.0))))
 (let ((?x7784 (* ?x6156 |v12:5|)))
 (let ((?x8059 (* 6.0 ?x9214)))
 (let ((?x4597 (+ (+ (+ (* 6.0 |v2:15|) (* ?x4592 |v1:16|)) (* ?x3237 |v12:5|)) (* ?x3812 |v14:3|))))
 (let ((?x3763 (* 13.0 |v16:1|)))
 (let ((?x7421 (* ?x3312 |v12:5|)))
 (let ((?x6847 (+ (+ (+ (+ (* ?x7410 |v14:3|) (* ?x9179 |v4:13|)) (* 17.0 |v4:13|)) ?x2377) ?x7421)))
 (let (($x308 (or (<= (+ (+ ?x6847 ?x8475) ?x3763) ?x3312) (<= (+ (+ (+ ?x4597 ?x8059) ?x7784) ?x7558) 4.0))))
 (let ((?x1718 (* 5.0 ?x2701)))
 (let ((?x1492 (* ?x5187 ?x9214)))
 (let ((?x3439 (* ?x3812 |v0:17|)))
 (let ((?x3532 (+ (+ (+ (+ (+ (* ?x286 |v17:0|) ?x6204) ?x3105) (* ?x3237 |v5:12|)) ?x3439) ?x1492)))
 (let ((?x9265 (* 13.0 |v4:13|)))
 (let ((?x6155 (+ (+ (+ (+ (+ (* 15.0 ?x4856) ?x7958) (* ?x6059 |v1:16|)) ?x7874) ?x9265) ?x7398)))
 (let ((?x2470 (* 7.0 ?x4856)))
 (let ((?x1549 (* ?x9179 |v5:12|)))
 (let ((?x2652 (* 16.0 |v1:16|)))
 (let ((?x4781 (+ (+ (+ (+ (* ?x1687 |v12:5|) |v3:14|) (* 10.0 |v16:1|)) (* 8.0 ?x439)) ?x2652)))
 (let ((?x8899 (* ?x3312 |v1:16|)))
 (let ((?x7869 (* ?x5187 ?x5679)))
 (let ((?x3951 (* ?x7410 |v2:15|)))
 (let ((?x5749 (+ (+ (+ (+ (+ (* 17.0 |v1:16|) (* 20.0 ?x4856)) ?x30) ?x289) ?x3951) ?x7869)))
 (let (($x5970 (and (and (<= (+ ?x5749 ?x8899) 11.0) (<= (+ (+ ?x4781 ?x1549) ?x2470) ?x9179)) (or (<= (+ ?x6155 (* 18.0 ?x4856)) 8.0) (<= (+ ?x3532 ?x1718) ?x9566)))))
 (let ((?x4059 (* ?x5187 |v2:15|)))
 (let ((?x7183 (* 2.0 |v3:14|)))
 (let ((?x4884 (* 15.0 |v4:13|)))
 (let ((?x6742 (+ (+ (+ (+ (+ ?x4263 (* ?x8355 ?x3669)) ?x6878) (* ?x8355 ?x9214)) ?x4884) ?x7183)))
 (let ((?x2039 (* ?x5537 |v2:15|)))
 (let ((?x3448 (* ?x3775 |v0:17|)))
 (let ((?x6456 (+ (+ (+ (+ (+ ?x8270 ?x2302) (* ?x9179 |v14:3|)) (* ?x7925 |v13:4|)) |v13:4|) ?x3448)))
 (let ((?x6485 (* 8.0 |v15:2|)))
 (let ((?x2462 (+ (+ (+ (+ (+ (* 9.0 |v2:15|) ?x2377) (* ?x9566 |v3:14|)) ?x1492) ?x8269) ?x6485)))
 (let ((?x7649 (* 10.0 |v0:17|)))
 (let ((?x417 (* ?x7410 |v16:1|)))
 (let ((?x2290 (* 14.0 |v12:5|)))
 (let ((?x6104 (+ (+ (+ (+ (* ?x5187 |v0:17|) (* ?x7410 |v5:12|)) (* 5.0 |v14:3|)) ?x2290) ?x8299)))
 (let (($x17 (or (<= (+ (+ ?x6104 ?x417) ?x7649) ?x9179) (<= (+ ?x2462 (* ?x6059 ?x4856)) 7.0))))
 (let (($x295 (or (or $x17 (or (<= (+ ?x6456 ?x2039) ?x3312) (<= (+ ?x6742 ?x4059) 12.0))) $x5970)))
 (let (($x2022 (and (or $x295 (and (and $x308 $x7763) (and $x7312 $x8433))) (and (or $x7205 (and $x6443 $x8672)) (or (and $x9249 $x9441) (or $x4323 $x6703))))))
 (let ((?x5698 (* 3.0 |v1:16|)))
 (let ((?x3862 (* 17.0 |v0:17|)))
 (let ((?x4433 (* 17.0 |v5:12|)))
 (let ((?x2480 (+ (+ (+ (+ (+ (* ?x9566 ?x2701) ?x7958) ?x8938) (* 13.0 ?x5679)) ?x4433) ?x3862)))
 (let ((?x2357 (* ?x7122 ?x4856)))
 (let ((?x7005 (+ (+ (+ (+ |v14:3| (* ?x7925 |v13:4|)) (* 7.0 |v15:2|)) (* 6.0 |v5:12|)) ?x2357)))
 (let ((?x8936 (+ (+ (+ (+ (* 8.0 |v1:16|) (* ?x1687 ?x5679)) |v14:3|) (* ?x9179 ?x439)) ?x4263)))
 (let ((?x3109 (* 8.0 ?x2701)))
 (let ((?x5018 (* ?x6059 |v1:16|)))
 (let ((?x2448 (+ (+ (+ (+ (* ?x286 |v5:12|) (* ?x2540 |v5:12|)) (* ?x3312 |v15:2|)) ?x7939) ?x5018)))
 (let (($x5825 (and (<= (+ (+ ?x2448 (* ?x3775 ?x5679)) ?x3109) 1.0) (<= (+ (+ ?x8936 ?x1786) ?x5407) ?x3775))))
 (let ((?x7123 (* 13.0 ?x2701)))
 (let ((?x2390 (* 16.0 |v3:14|)))
 (let ((?x7791 (* ?x6156 ?x4856)))
 (let ((?x4641 (+ (+ (+ (+ (* ?x9566 ?x2701) (* ?x7122 |v16:1|)) (* ?x9308 ?x9214)) ?x7791) ?x2390)))
 (let ((?x6086 (* ?x7925 |v13:4|)))
 (let ((?x4246 (* 18.0 |v0:17|)))
 (let ((?x2188 (+ (+ (+ (+ (+ ?x289 ?x7858) (* ?x3312 |v4:13|)) (* 15.0 |v17:0|)) ?x4246) ?x6086)))
 (let (($x3369 (or (<= (+ ?x2188 (* ?x3237 |v14:3|)) ?x7468) (<= (+ (+ ?x4641 ?x3494) ?x7123) ?x8355))))
 (let ((?x3097 (* 17.0 ?x4856)))
 (let ((?x8975 (* 7.0 ?x439)))
 (let ((?x2780 (* ?x7925 |v12:5|)))
 (let ((?x2186 (+ (+ (+ (+ (+ ?x417 (* ?x6059 |v0:17|)) (* ?x3312 ?x5679)) ?x2780) ?x2780) ?x8975)))
 (let ((?x2714 (* 14.0 ?x4856)))
 (let ((?x3240 (+ (+ (+ (+ (* 2.0 ?x5679) (* 15.0 |v15:2|)) (* 11.0 |v2:15|)) ?x3669) ?x1923)))
 (let ((?x6697 (* ?x3312 ?x4856)))
 (let ((?x7369 (* ?x286 |v14:3|)))
 (let ((?x842 (+ (+ (+ (+ (* ?x4592 ?x3669) (* 14.0 ?x5679)) ?x3860) (* ?x9308 |v2:15|)) ?x7635)))
 (let ((?x2148 (* 14.0 ?x9214)))
 (let ((?x1583 (+ (+ (+ (+ (+ ?x7649 (* ?x9179 |v15:2|)) ?x2043) (* 17.0 |v1:16|)) ?x2148) ?x1511)))
 (let (($x625 (or (or (<= (+ ?x1583 ?x6356) 10.0) (<= (+ (+ ?x842 ?x7369) ?x6697) ?x3812)) (or (<= (+ (+ ?x3240 ?x2714) ?x5149) 12.0) (<= (+ ?x2186 ?x3097) 16.0)))))
 (let (($x8122 (or (or $x625 (or $x3369 $x5825)) (<= (+ (+ ?x7005 ?x3951) (* ?x5537 |v13:4|)) ?x9566))))
 (let ((?x8940 (* 9.0 ?x4856)))
 (let ((?x256 (+ (+ (+ (+ ?x2377 (* 20.0 ?x3669)) (* ?x8355 |v17:0|)) (* 10.0 ?x9214)) ?x8940)))
 (let ((?x8101 (* ?x7122 |v12:5|)))
 (let ((?x2690 (* ?x1687 |v4:13|)))
 (let ((?x5966 (+ (+ (+ (+ (+ (* 6.0 ?x5679) (* ?x4592 |v15:2|)) ?x8182) ?x602) ?x2690) ?x3557)))
 (let ((?x5845 (* ?x7410 |v14:3|)))
 (let ((?x4001 (+ (+ (+ (+ (* 16.0 ?x2701) (* ?x1687 ?x5679)) (* ?x6156 |v16:1|)) ?x8177) ?x1718)))
 (let ((?x6051 (+ (+ (+ (+ ?x3109 (* ?x3237 |v1:16|)) (* ?x1687 |v15:2|)) ?x7276) (* ?x9179 ?x9214))))
 (let (($x4324 (and (<= (+ (+ ?x6051 ?x6086) ?x7635) 2.0) (<= (+ (+ ?x4001 (* ?x3775 |v17:0|)) ?x5845) 19.0))))
 (let (($x7877 (and $x4324 (or (<= (+ ?x5966 ?x8101) 9.0) (<= (+ (+ ?x256 ?x5060) ?x316) ?x2540)))))
 (let ((?x8575 (+ (+ (+ (+ (* 4.0 ?x4856) ?x7784) (* ?x6156 ?x439)) (* 2.0 |v5:12|)) (* 17.0 |v15:2|))))
 (let ((?x2532 (* 4.0 |v13:4|)))
 (let ((?x948 (* 17.0 |v14:3|)))
 (let ((?x1515 (* 16.0 ?x3669)))
 (let ((?x6511 (* ?x3237 ?x439)))
 (let ((?x4540 (+ (+ (+ (+ (* ?x9308 |v13:4|) (* 16.0 |v15:2|)) (* ?x3775 |v2:15|)) ?x6511) ?x1515)))
 (let (($x7015 (or (<= (+ (+ ?x4540 ?x948) ?x2532) 3.0) (<= (+ (+ ?x8575 ?x9265) ?x2516) 1.0))))
 (let ((?x8456 (* ?x4592 |v5:12|)))
 (let ((?x6787 (* ?x5537 ?x2701)))
 (let ((?x4357 (+ (+ (+ (+ (* 11.0 |v1:16|) ?x5833) (* 17.0 |v1:16|)) (* 11.0 |v14:3|)) ?x1923)))
 (let ((?x9113 (* ?x3237 |v12:5|)))
 (let ((?x711 (+ (+ (+ (+ (* ?x2540 ?x3669) ?x8720) (* ?x5537 |v16:1|)) (* 10.0 ?x3669)) ?x9113)))
 (let (($x3287 (and (<= (+ (+ ?x711 ?x8674) ?x8101) 2.0) (<= (+ (+ ?x4357 ?x6787) ?x8456) 14.0))))
 (let ((?x3977 (* ?x3775 |v2:15|)))
 (let ((?x3621 (* 6.0 ?x3669)))
 (let ((?x7348 (+ (+ (+ (+ (+ (+ ?x8940 ?x219) ?x4432) ?x5271) (* 19.0 |v17:0|)) ?x3621) ?x3977)))
 (let ((?x8988 (+ (+ (+ (+ (+ (* 13.0 ?x9214) ?x5600) ?x5885) ?x3862) (* ?x4592 |v16:1|)) ?x8678)))
 (let ((?x9705 (* 3.0 ?x439)))
 (let ((?x1421 (* ?x9179 |v4:13|)))
 (let ((?x7154 (* ?x5537 |v3:14|)))
 (let ((?x7957 (+ (+ (+ (+ (+ (* ?x3237 |v15:2|) (* ?x3312 ?x2701)) ?x3905) |v3:14|) ?x7154) ?x1421)))
 (let ((?x4424 (* 10.0 ?x439)))
 (let ((?x1662 (* 19.0 ?x439)))
 (let ((?x778 (+ (+ (+ (+ (* ?x9179 ?x4856) (* ?x7468 |v15:2|)) (* 20.0 ?x9214)) ?x1662) ?x4424)))
 (let (($x7599 (and (<= (+ (+ ?x778 (* 12.0 |v17:0|)) (* 14.0 |v17:0|)) 19.0) (<= (+ ?x7957 ?x9705) 2.0))))
 (let ((?x4006 (* ?x5187 |v16:1|)))
 (let ((?x2365 (+ (+ (+ (+ (+ ?x9113 ?x1718) (* 15.0 |v5:12|)) (* 19.0 |v5:12|)) ?x4006) ?x7193)))
 (let ((?x1301 (* 19.0 |v0:17|)))
 (let ((?x4383 (* ?x7468 |v0:17|)))
 (let ((?x1596 (+ (+ (+ (+ (+ (+ ?x831 ?x6485) (* 8.0 ?x3669)) ?x3228) ?x2043) ?x4383) ?x1301)))
 (let ((?x1778 (+ (+ (+ (+ (* ?x7122 |v16:1|) (* 2.0 |v5:12|)) (* 4.0 |v17:0|)) ?x2611) ?x6485)))
 (let ((?x3915 (+ (+ (+ (+ (* 6.0 ?x439) ?x7649) (* ?x3775 ?x4856)) (* 0.0 |v3:14|)) ?x2532)))
 (let (($x8950 (and (<= (+ (+ ?x3915 (* ?x2540 ?x2701)) (* ?x3237 ?x2701)) 13.0) (<= (+ (+ ?x1778 ?x831) (* ?x3812 ?x2701)) ?x3312))))
 (let (($x925 (and (or $x8950 (or (<= ?x1596 ?x9179) (<= (+ ?x2365 ?x597) ?x9179))) (or $x7599 (and (<= (+ ?x8988 (* ?x7122 ?x2701)) 8.0) (<= ?x7348 ?x9179))))))
 (let ((?x5406 (* 14.0 |v4:13|)))
 (let ((?x5405 (* ?x1687 |v2:15|)))
 (let ((?x2766 (* ?x286 |v2:15|)))
 (let ((?x5244 (+ (+ (+ (+ (+ ?x7123 (* ?x8355 ?x3669)) ?x5885) (* 15.0 |v15:2|)) ?x2766) ?x5405)))
 (let ((?x2924 (* 17.0 |v1:16|)))
 (let ((?x8432 (* ?x7925 |v3:14|)))
 (let ((?x72 (* ?x2540 ?x3669)))
 (let ((?x6535 (+ (+ (+ (+ (+ (* 16.0 ?x4856) ?x831) (* ?x9179 ?x4856)) ?x4006) ?x72) ?x8432)))
 (let ((?x1634 (* 10.0 |v1:16|)))
 (let ((?x8453 (* ?x7410 |v0:17|)))
 (let ((?x8723 (* 4.0 |v4:13|)))
 (let ((?x725 (+ (+ (+ (+ (* ?x286 |v15:2|) (* 2.0 ?x5679)) (* 19.0 |v2:15|)) ?x8723) ?x8453)))
 (let ((?x9126 (* 11.0 ?x2701)))
 (let ((?x903 (* ?x8355 ?x5679)))
 (let ((?x8934 (+ (+ (+ (+ (* ?x3312 ?x439) ?x7369) (* 10.0 |v3:14|)) (* 14.0 |v14:3|)) ?x2904)))
 (let (($x5619 (and (<= (+ (+ ?x8934 ?x903) ?x9126) 1.0) (<= (+ (+ ?x725 ?x1634) ?x2441) 19.0))))
 (let ((?x1165 (* ?x9179 |v2:15|)))
 (let ((?x490 (* 20.0 ?x9214)))
 (let ((?x4218 (+ (+ (+ (+ (+ ?x1511 ?x3977) (* ?x3237 |v2:15|)) (* 12.0 |v5:12|)) ?x490) ?x1165)))
 (let ((?x3971 (* ?x7468 ?x9214)))
 (let ((?x8817 (* 15.0 |v17:0|)))
 (let ((?x268 (* ?x7925 |v5:12|)))
 (let ((?x7604 (+ (+ (+ (+ (* ?x1687 ?x5679) (* 0.0 |v13:4|)) (* 3.0 ?x5679)) ?x268) ?x2552)))
 (let ((?x3059 (* ?x6059 |v0:17|)))
 (let ((?x7103 (+ (+ (+ (+ (* ?x8355 |v0:17|) (* 2.0 |v14:3|)) (* 13.0 |v13:4|)) ?x3059) ?x3977)))
 (let (($x1762 (or (<= (+ (+ ?x7103 ?x7255) ?x2148) 5.0) (or (<= (+ (+ ?x7604 ?x8817) ?x3971) ?x5187) (<= (+ ?x4218 ?x6787) ?x5187)))))
 (let (($x7442 (or $x1762 (or $x5619 (or (<= (+ ?x6535 ?x2924) 13.0) (<= (+ ?x5244 ?x5406) 1.0))))))
 (let ((?x5101 (* ?x8355 ?x9214)))
 (let ((?x5920 (* ?x5187 |v0:17|)))
 (let ((?x5437 (+ (+ (+ (+ |v12:5| (* ?x5187 |v3:14|)) (* ?x2540 |v1:16|)) (* ?x4592 ?x2701)) ?x490)))
 (let (($x6335 (or (and (<= (+ (+ ?x5437 ?x5920) ?x5101) ?x7122) $x7442) (and $x925 (or (and $x3287 $x7015) $x7877)))))
 (let (($x9355 (and (and $x6335 (and $x8122 (<= (+ ?x2480 ?x5698) 13.0))) (and $x2022 (or $x3402 $x1386)))))
 (let (($x4184 (not (= |v6:11_st| (RMk1 val!10283)))))
 (let (($x3947 (not (= |v7:10_st| (RMk1 val!10282)))))
 (let (($x3746 (not (= |v8:9_st| (RMk1 val!10281)))))
 (let (($x3505 (not (= |v9:8_st| (RMk1 val!10280)))))
 (let (($x1202 (not (= |v10:7_st| (RMk1 val!10279)))))
 (let (($x2351 (not (= |v11:6_st| (RMk1 val!10278)))))
 (and $x2351 $x1202 $x3505 $x3746 $x3947 $x4184 $x9355))))))))))))))))))))))))))))))))))))))))))))))))))))))))))))))))))))))))))))))))))))))))))))))))))))))))))))))))))))))))))))))))))))))))))))))))))))))))))))))))))))))))))))))))))))))))))))))))))))))))))))))))))))))))))))))))))))))))))))))))))))))))))))))))))))))))))))))))))))))))))))))))))))))))))))))))))))))))))))))))))))))))))))))))))))))))))))))))))))))))))))))))))))))))))
 )
 )
 )
 )
 )
 )
 )
 )
 )
 )
 )
 )
 )
 )
 )
 )
 )
 )
(check-sat)
